c "random instance"
p edges 150 3363
e 1 4
e 1 6
e 1 13
e 1 15
e 1 21
e 1 22
e 1 24
e 1 25
e 1 32
e 1 35
e 1 40
e 1 41
e 1 43
e 1 45
e 1 46
e 1 50
e 1 52
e 1 54
e 1 56
e 1 58
e 1 65
e 1 66
e 1 67
e 1 74
e 1 77
e 1 78
e 1 86
e 1 88
e 1 90
e 1 92
e 1 94
e 1 98
e 1 101
e 1 114
e 1 119
e 1 121
e 1 122
e 1 130
e 1 138
e 1 141
e 1 142
e 1 146
e 1 149
e 2 3
e 2 5
e 2 7
e 2 9
e 2 10
e 2 13
e 2 14
e 2 18
e 2 24
e 2 25
e 2 27
e 2 35
e 2 38
e 2 40
e 2 46
e 2 48
e 2 51
e 2 57
e 2 58
e 2 60
e 2 66
e 2 72
e 2 73
e 2 78
e 2 82
e 2 83
e 2 84
e 2 85
e 2 87
e 2 93
e 2 97
e 2 98
e 2 100
e 2 101
e 2 102
e 2 104
e 2 112
e 2 114
e 2 118
e 2 120
e 2 123
e 2 124
e 2 126
e 2 130
e 2 138
e 2 142
e 2 143
e 2 149
e 3 9
e 3 10
e 3 11
e 3 17
e 3 22
e 3 24
e 3 26
e 3 29
e 3 30
e 3 35
e 3 36
e 3 37
e 3 38
e 3 44
e 3 45
e 3 46
e 3 49
e 3 50
e 3 51
e 3 54
e 3 58
e 3 67
e 3 74
e 3 75
e 3 78
e 3 82
e 3 86
e 3 90
e 3 93
e 3 94
e 3 99
e 3 102
e 3 108
e 3 110
e 3 112
e 3 115
e 3 119
e 3 120
e 3 121
e 3 124
e 3 126
e 3 127
e 3 128
e 3 138
e 3 146
e 3 147
e 3 148
e 4 5
e 4 8
e 4 14
e 4 23
e 4 24
e 4 26
e 4 33
e 4 36
e 4 37
e 4 39
e 4 46
e 4 47
e 4 53
e 4 57
e 4 59
e 4 60
e 4 62
e 4 63
e 4 67
e 4 68
e 4 69
e 4 71
e 4 72
e 4 74
e 4 76
e 4 81
e 4 83
e 4 85
e 4 89
e 4 95
e 4 96
e 4 99
e 4 101
e 4 102
e 4 104
e 4 107
e 4 110
e 4 112
e 4 113
e 4 114
e 4 117
e 4 130
e 4 143
e 4 145
e 4 148
e 5 8
e 5 10
e 5 15
e 5 16
e 5 19
e 5 22
e 5 23
e 5 26
e 5 31
e 5 33
e 5 34
e 5 35
e 5 40
e 5 41
e 5 42
e 5 43
e 5 45
e 5 49
e 5 53
e 5 56
e 5 65
e 5 67
e 5 68
e 5 70
e 5 71
e 5 74
e 5 82
e 5 83
e 5 84
e 5 88
e 5 92
e 5 94
e 5 99
e 5 100
e 5 102
e 5 106
e 5 107
e 5 108
e 5 117
e 5 123
e 5 125
e 5 127
e 5 132
e 5 136
e 5 139
e 5 143
e 5 144
e 5 146
e 6 11
e 6 15
e 6 16
e 6 20
e 6 23
e 6 24
e 6 33
e 6 38
e 6 40
e 6 42
e 6 43
e 6 44
e 6 53
e 6 56
e 6 64
e 6 67
e 6 71
e 6 74
e 6 79
e 6 81
e 6 82
e 6 86
e 6 90
e 6 92
e 6 97
e 6 98
e 6 105
e 6 111
e 6 113
e 6 120
e 6 122
e 6 126
e 6 132
e 6 135
e 6 141
e 6 145
e 7 9
e 7 10
e 7 11
e 7 14
e 7 19
e 7 25
e 7 27
e 7 28
e 7 30
e 7 31
e 7 32
e 7 33
e 7 49
e 7 50
e 7 52
e 7 59
e 7 61
e 7 66
e 7 67
e 7 69
e 7 70
e 7 78
e 7 81
e 7 85
e 7 98
e 7 100
e 7 110
e 7 117
e 7 118
e 7 119
e 7 127
e 7 129
e 7 130
e 7 139
e 7 140
e 7 142
e 7 143
e 7 144
e 7 147
e 8 14
e 8 15
e 8 22
e 8 25
e 8 26
e 8 31
e 8 32
e 8 34
e 8 41
e 8 46
e 8 57
e 8 58
e 8 69
e 8 70
e 8 71
e 8 75
e 8 77
e 8 82
e 8 89
e 8 91
e 8 100
e 8 102
e 8 104
e 8 106
e 8 113
e 8 115
e 8 119
e 8 121
e 8 123
e 8 126
e 8 132
e 8 137
e 9 11
e 9 17
e 9 20
e 9 26
e 9 28
e 9 37
e 9 39
e 9 40
e 9 42
e 9 43
e 9 45
e 9 52
e 9 55
e 9 60
e 9 63
e 9 65
e 9 67
e 9 68
e 9 73
e 9 80
e 9 81
e 9 85
e 9 88
e 9 89
e 9 99
e 9 104
e 9 105
e 9 109
e 9 111
e 9 112
e 9 113
e 9 125
e 9 134
e 9 137
e 9 143
e 9 144
e 9 150
e 10 11
e 10 15
e 10 24
e 10 28
e 10 30
e 10 34
e 10 40
e 10 42
e 10 45
e 10 50
e 10 51
e 10 52
e 10 55
e 10 57
e 10 58
e 10 63
e 10 65
e 10 66
e 10 67
e 10 72
e 10 73
e 10 76
e 10 89
e 10 96
e 10 97
e 10 107
e 10 113
e 10 123
e 10 126
e 10 128
e 10 129
e 10 132
e 10 133
e 10 138
e 10 142
e 10 145
e 11 12
e 11 14
e 11 20
e 11 24
e 11 27
e 11 28
e 11 36
e 11 39
e 11 42
e 11 43
e 11 44
e 11 45
e 11 46
e 11 47
e 11 48
e 11 55
e 11 64
e 11 65
e 11 66
e 11 67
e 11 70
e 11 72
e 11 74
e 11 77
e 11 85
e 11 86
e 11 89
e 11 92
e 11 93
e 11 97
e 11 98
e 11 101
e 11 105
e 11 106
e 11 112
e 11 119
e 11 120
e 11 126
e 11 127
e 11 128
e 11 130
e 11 133
e 11 136
e 11 138
e 11 145
e 11 148
e 11 150
e 12 13
e 12 15
e 12 17
e 12 19
e 12 22
e 12 24
e 12 25
e 12 30
e 12 32
e 12 35
e 12 36
e 12 39
e 12 58
e 12 62
e 12 63
e 12 68
e 12 69
e 12 72
e 12 74
e 12 78
e 12 79
e 12 87
e 12 97
e 12 99
e 12 100
e 12 101
e 12 103
e 12 104
e 12 108
e 12 110
e 12 111
e 12 119
e 12 120
e 12 121
e 12 124
e 12 125
e 12 126
e 12 127
e 12 130
e 12 136
e 12 138
e 12 141
e 12 142
e 12 143
e 12 146
e 12 148
e 13 15
e 13 18
e 13 24
e 13 25
e 13 28
e 13 30
e 13 33
e 13 34
e 13 41
e 13 42
e 13 45
e 13 49
e 13 50
e 13 52
e 13 53
e 13 55
e 13 57
e 13 61
e 13 63
e 13 67
e 13 68
e 13 70
e 13 73
e 13 75
e 13 76
e 13 77
e 13 79
e 13 84
e 13 85
e 13 89
e 13 90
e 13 91
e 13 93
e 13 99
e 13 100
e 13 105
e 13 110
e 13 116
e 13 121
e 13 124
e 13 125
e 13 129
e 13 132
e 13 137
e 13 139
e 13 143
e 13 145
e 13 146
e 13 147
e 13 149
e 13 150
e 14 19
e 14 21
e 14 28
e 14 36
e 14 41
e 14 50
e 14 54
e 14 63
e 14 64
e 14 67
e 14 69
e 14 75
e 14 77
e 14 83
e 14 85
e 14 86
e 14 91
e 14 93
e 14 97
e 14 99
e 14 101
e 14 103
e 14 105
e 14 106
e 14 110
e 14 117
e 14 118
e 14 119
e 14 120
e 14 122
e 14 124
e 14 125
e 14 130
e 14 132
e 14 142
e 14 145
e 14 146
e 14 148
e 15 17
e 15 18
e 15 21
e 15 26
e 15 27
e 15 28
e 15 30
e 15 37
e 15 40
e 15 42
e 15 50
e 15 54
e 15 57
e 15 59
e 15 61
e 15 63
e 15 64
e 15 68
e 15 70
e 15 71
e 15 73
e 15 76
e 15 83
e 15 84
e 15 88
e 15 93
e 15 95
e 15 96
e 15 99
e 15 105
e 15 108
e 15 109
e 15 118
e 15 125
e 15 128
e 15 131
e 15 132
e 15 136
e 15 140
e 15 144
e 15 145
e 15 146
e 15 147
e 15 148
e 16 17
e 16 19
e 16 22
e 16 26
e 16 30
e 16 31
e 16 32
e 16 35
e 16 40
e 16 42
e 16 46
e 16 47
e 16 52
e 16 54
e 16 60
e 16 63
e 16 72
e 16 83
e 16 84
e 16 85
e 16 87
e 16 89
e 16 92
e 16 100
e 16 105
e 16 106
e 16 109
e 16 112
e 16 113
e 16 118
e 16 119
e 16 123
e 16 126
e 16 130
e 16 131
e 16 133
e 16 134
e 16 140
e 16 141
e 16 143
e 16 146
e 17 19
e 17 21
e 17 22
e 17 38
e 17 39
e 17 41
e 17 43
e 17 44
e 17 47
e 17 50
e 17 54
e 17 58
e 17 62
e 17 63
e 17 65
e 17 67
e 17 70
e 17 72
e 17 75
e 17 77
e 17 79
e 17 82
e 17 86
e 17 87
e 17 90
e 17 95
e 17 98
e 17 102
e 17 104
e 17 120
e 17 128
e 17 135
e 17 137
e 17 139
e 17 141
e 17 142
e 17 147
e 18 21
e 18 22
e 18 23
e 18 28
e 18 29
e 18 31
e 18 32
e 18 38
e 18 40
e 18 44
e 18 62
e 18 63
e 18 64
e 18 71
e 18 79
e 18 85
e 18 89
e 18 90
e 18 92
e 18 104
e 18 107
e 18 113
e 18 114
e 18 118
e 18 123
e 18 124
e 18 128
e 18 136
e 18 141
e 18 145
e 18 150
e 19 24
e 19 26
e 19 28
e 19 29
e 19 30
e 19 31
e 19 32
e 19 33
e 19 34
e 19 35
e 19 37
e 19 46
e 19 48
e 19 49
e 19 51
e 19 56
e 19 60
e 19 61
e 19 64
e 19 68
e 19 72
e 19 75
e 19 76
e 19 80
e 19 86
e 19 89
e 19 90
e 19 92
e 19 93
e 19 106
e 19 108
e 19 109
e 19 111
e 19 115
e 19 116
e 19 119
e 19 128
e 19 136
e 19 140
e 19 141
e 19 146
e 19 147
e 19 149
e 20 22
e 20 28
e 20 34
e 20 38
e 20 44
e 20 45
e 20 57
e 20 60
e 20 62
e 20 66
e 20 67
e 20 74
e 20 76
e 20 77
e 20 78
e 20 80
e 20 81
e 20 84
e 20 85
e 20 89
e 20 91
e 20 92
e 20 94
e 20 96
e 20 102
e 20 110
e 20 115
e 20 118
e 20 120
e 20 121
e 20 124
e 20 131
e 20 132
e 20 137
e 20 138
e 20 141
e 20 142
e 20 143
e 20 144
e 20 145
e 21 24
e 21 25
e 21 26
e 21 27
e 21 28
e 21 29
e 21 32
e 21 34
e 21 35
e 21 36
e 21 38
e 21 39
e 21 41
e 21 45
e 21 53
e 21 56
e 21 62
e 21 64
e 21 66
e 21 68
e 21 70
e 21 72
e 21 74
e 21 76
e 21 81
e 21 83
e 21 85
e 21 93
e 21 95
e 21 105
e 21 109
e 21 113
e 21 114
e 21 115
e 21 118
e 21 121
e 21 123
e 21 125
e 21 131
e 21 132
e 21 134
e 21 138
e 21 139
e 21 140
e 21 144
e 21 147
e 22 23
e 22 25
e 22 27
e 22 28
e 22 29
e 22 32
e 22 33
e 22 34
e 22 42
e 22 43
e 22 44
e 22 45
e 22 46
e 22 54
e 22 59
e 22 60
e 22 63
e 22 77
e 22 78
e 22 79
e 22 82
e 22 83
e 22 85
e 22 86
e 22 89
e 22 92
e 22 105
e 22 110
e 22 113
e 22 114
e 22 115
e 22 116
e 22 118
e 22 125
e 22 129
e 22 133
e 22 135
e 22 136
e 22 141
e 22 142
e 22 143
e 22 145
e 23 26
e 23 27
e 23 31
e 23 33
e 23 35
e 23 42
e 23 49
e 23 57
e 23 71
e 23 73
e 23 74
e 23 75
e 23 76
e 23 79
e 23 93
e 23 98
e 23 102
e 23 103
e 23 115
e 23 123
e 23 125
e 23 127
e 23 130
e 23 134
e 23 140
e 23 144
e 23 145
e 23 149
e 24 25
e 24 27
e 24 33
e 24 35
e 24 37
e 24 38
e 24 42
e 24 48
e 24 59
e 24 65
e 24 66
e 24 67
e 24 72
e 24 85
e 24 89
e 24 91
e 24 93
e 24 97
e 24 100
e 24 101
e 24 103
e 24 104
e 24 106
e 24 107
e 24 108
e 24 109
e 24 118
e 24 127
e 24 129
e 24 133
e 24 134
e 24 135
e 24 139
e 24 143
e 24 146
e 24 150
e 25 27
e 25 28
e 25 29
e 25 32
e 25 33
e 25 39
e 25 40
e 25 41
e 25 42
e 25 44
e 25 52
e 25 54
e 25 56
e 25 58
e 25 63
e 25 66
e 25 67
e 25 69
e 25 72
e 25 78
e 25 80
e 25 89
e 25 91
e 25 92
e 25 94
e 25 102
e 25 106
e 25 110
e 25 117
e 25 120
e 25 126
e 25 127
e 25 131
e 25 132
e 25 134
e 25 136
e 25 140
e 25 141
e 25 142
e 25 143
e 25 145
e 25 148
e 26 27
e 26 30
e 26 31
e 26 33
e 26 43
e 26 44
e 26 50
e 26 53
e 26 54
e 26 55
e 26 61
e 26 62
e 26 65
e 26 69
e 26 70
e 26 75
e 26 77
e 26 78
e 26 79
e 26 80
e 26 81
e 26 82
e 26 86
e 26 89
e 26 91
e 26 94
e 26 95
e 26 96
e 26 100
e 26 106
e 26 107
e 26 113
e 26 114
e 26 119
e 26 120
e 26 124
e 26 128
e 26 130
e 26 132
e 26 135
e 27 33
e 27 34
e 27 44
e 27 46
e 27 55
e 27 64
e 27 66
e 27 71
e 27 75
e 27 78
e 27 79
e 27 85
e 27 86
e 27 88
e 27 89
e 27 90
e 27 97
e 27 98
e 27 105
e 27 109
e 27 112
e 27 115
e 27 120
e 27 122
e 27 126
e 27 130
e 27 135
e 27 141
e 27 146
e 27 149
e 27 150
e 28 29
e 28 30
e 28 34
e 28 39
e 28 43
e 28 46
e 28 47
e 28 52
e 28 58
e 28 69
e 28 72
e 28 73
e 28 75
e 28 77
e 28 78
e 28 88
e 28 89
e 28 90
e 28 97
e 28 108
e 28 109
e 28 117
e 28 118
e 28 119
e 28 124
e 28 134
e 28 138
e 28 140
e 28 142
e 28 144
e 28 145
e 29 34
e 29 35
e 29 47
e 29 48
e 29 49
e 29 59
e 29 62
e 29 66
e 29 67
e 29 71
e 29 74
e 29 75
e 29 76
e 29 78
e 29 79
e 29 82
e 29 84
e 29 86
e 29 91
e 29 96
e 29 100
e 29 104
e 29 106
e 29 107
e 29 108
e 29 113
e 29 114
e 29 119
e 29 124
e 29 125
e 29 126
e 29 133
e 29 137
e 29 140
e 29 147
e 30 31
e 30 35
e 30 36
e 30 38
e 30 44
e 30 47
e 30 50
e 30 52
e 30 53
e 30 54
e 30 55
e 30 59
e 30 62
e 30 66
e 30 68
e 30 73
e 30 75
e 30 76
e 30 81
e 30 93
e 30 95
e 30 97
e 30 100
e 30 102
e 30 104
e 30 108
e 30 109
e 30 114
e 30 115
e 30 116
e 30 120
e 30 121
e 30 123
e 30 124
e 30 127
e 30 133
e 30 136
e 30 138
e 30 139
e 30 140
e 30 148
e 30 149
e 31 32
e 31 41
e 31 44
e 31 49
e 31 54
e 31 55
e 31 56
e 31 57
e 31 64
e 31 66
e 31 71
e 31 72
e 31 79
e 31 80
e 31 81
e 31 83
e 31 84
e 31 90
e 31 92
e 31 93
e 31 95
e 31 96
e 31 101
e 31 115
e 31 116
e 31 125
e 31 128
e 31 133
e 31 142
e 31 143
e 31 146
e 31 148
e 31 149
e 32 35
e 32 39
e 32 40
e 32 48
e 32 51
e 32 56
e 32 57
e 32 61
e 32 64
e 32 68
e 32 69
e 32 70
e 32 71
e 32 72
e 32 75
e 32 76
e 32 83
e 32 84
e 32 85
e 32 90
e 32 92
e 32 94
e 32 96
e 32 99
e 32 102
e 32 107
e 32 114
e 32 119
e 32 120
e 32 121
e 32 125
e 32 142
e 32 144
e 32 146
e 32 147
e 32 148
e 32 150
e 33 37
e 33 40
e 33 43
e 33 46
e 33 48
e 33 59
e 33 60
e 33 62
e 33 64
e 33 67
e 33 69
e 33 70
e 33 73
e 33 79
e 33 81
e 33 82
e 33 84
e 33 91
e 33 92
e 33 93
e 33 98
e 33 99
e 33 103
e 33 104
e 33 110
e 33 112
e 33 118
e 33 121
e 33 126
e 33 133
e 33 134
e 33 135
e 33 141
e 33 145
e 33 149
e 34 38
e 34 39
e 34 40
e 34 47
e 34 52
e 34 54
e 34 56
e 34 64
e 34 66
e 34 68
e 34 70
e 34 73
e 34 78
e 34 79
e 34 94
e 34 99
e 34 102
e 34 103
e 34 105
e 34 107
e 34 111
e 34 112
e 34 113
e 34 115
e 34 118
e 34 119
e 34 120
e 34 123
e 34 126
e 34 127
e 34 137
e 34 140
e 34 141
e 34 149
e 35 42
e 35 45
e 35 54
e 35 56
e 35 63
e 35 67
e 35 69
e 35 73
e 35 76
e 35 77
e 35 81
e 35 82
e 35 85
e 35 91
e 35 96
e 35 99
e 35 100
e 35 102
e 35 105
e 35 107
e 35 108
e 35 110
e 35 111
e 35 114
e 35 118
e 35 119
e 35 121
e 35 129
e 35 130
e 35 132
e 35 137
e 35 141
e 35 143
e 35 146
e 36 37
e 36 38
e 36 40
e 36 43
e 36 45
e 36 52
e 36 55
e 36 59
e 36 61
e 36 67
e 36 69
e 36 72
e 36 75
e 36 76
e 36 77
e 36 78
e 36 79
e 36 81
e 36 85
e 36 86
e 36 91
e 36 93
e 36 95
e 36 102
e 36 104
e 36 105
e 36 109
e 36 112
e 36 113
e 36 116
e 36 119
e 36 121
e 36 123
e 36 124
e 36 126
e 36 127
e 36 130
e 36 133
e 36 134
e 36 142
e 36 143
e 37 40
e 37 46
e 37 48
e 37 50
e 37 53
e 37 55
e 37 56
e 37 58
e 37 62
e 37 65
e 37 71
e 37 72
e 37 74
e 37 79
e 37 80
e 37 82
e 37 92
e 37 97
e 37 99
e 37 101
e 37 107
e 37 109
e 37 114
e 37 118
e 37 121
e 37 129
e 37 131
e 37 132
e 37 134
e 37 137
e 37 140
e 37 141
e 37 143
e 37 148
e 37 149
e 38 40
e 38 42
e 38 45
e 38 46
e 38 51
e 38 53
e 38 63
e 38 66
e 38 79
e 38 85
e 38 87
e 38 88
e 38 99
e 38 103
e 38 104
e 38 106
e 38 119
e 38 124
e 38 125
e 38 132
e 38 133
e 38 134
e 38 138
e 38 141
e 38 142
e 38 143
e 38 144
e 39 46
e 39 48
e 39 55
e 39 58
e 39 59
e 39 66
e 39 67
e 39 69
e 39 70
e 39 75
e 39 76
e 39 79
e 39 81
e 39 82
e 39 83
e 39 92
e 39 94
e 39 95
e 39 98
e 39 100
e 39 102
e 39 106
e 39 109
e 39 110
e 39 117
e 39 120
e 39 124
e 39 126
e 39 127
e 39 129
e 39 132
e 39 133
e 39 140
e 39 143
e 39 144
e 39 146
e 40 42
e 40 45
e 40 49
e 40 51
e 40 56
e 40 58
e 40 61
e 40 65
e 40 72
e 40 73
e 40 76
e 40 81
e 40 84
e 40 88
e 40 91
e 40 92
e 40 94
e 40 96
e 40 97
e 40 103
e 40 107
e 40 110
e 40 111
e 40 114
e 40 116
e 40 118
e 40 125
e 40 129
e 40 136
e 40 137
e 40 138
e 40 141
e 40 142
e 40 143
e 40 148
e 41 42
e 41 45
e 41 48
e 41 49
e 41 56
e 41 63
e 41 64
e 41 72
e 41 74
e 41 78
e 41 79
e 41 80
e 41 91
e 41 95
e 41 100
e 41 103
e 41 111
e 41 123
e 41 125
e 41 129
e 41 135
e 41 137
e 41 143
e 41 144
e 41 145
e 41 146
e 41 147
e 41 148
e 41 150
e 42 48
e 42 51
e 42 54
e 42 56
e 42 69
e 42 70
e 42 76
e 42 81
e 42 82
e 42 87
e 42 90
e 42 92
e 42 93
e 42 95
e 42 96
e 42 97
e 42 99
e 42 103
e 42 107
e 42 108
e 42 110
e 42 112
e 42 113
e 42 116
e 42 119
e 42 121
e 42 122
e 42 123
e 42 126
e 42 127
e 42 130
e 42 131
e 42 136
e 42 139
e 42 148
e 42 149
e 43 46
e 43 51
e 43 52
e 43 59
e 43 69
e 43 70
e 43 73
e 43 77
e 43 79
e 43 82
e 43 87
e 43 89
e 43 93
e 43 99
e 43 108
e 43 112
e 43 115
e 43 116
e 43 117
e 43 118
e 43 120
e 43 123
e 43 128
e 43 132
e 43 134
e 43 139
e 43 143
e 43 145
e 43 148
e 44 45
e 44 46
e 44 49
e 44 53
e 44 56
e 44 61
e 44 64
e 44 67
e 44 69
e 44 76
e 44 77
e 44 79
e 44 81
e 44 88
e 44 92
e 44 95
e 44 97
e 44 98
e 44 101
e 44 109
e 44 113
e 44 118
e 44 126
e 44 128
e 44 142
e 44 146
e 45 47
e 45 49
e 45 50
e 45 53
e 45 58
e 45 61
e 45 69
e 45 75
e 45 76
e 45 81
e 45 84
e 45 89
e 45 91
e 45 98
e 45 102
e 45 114
e 45 116
e 45 117
e 45 130
e 45 133
e 45 134
e 45 138
e 45 140
e 45 141
e 45 144
e 45 146
e 45 149
e 45 150
e 46 47
e 46 53
e 46 55
e 46 56
e 46 57
e 46 59
e 46 61
e 46 64
e 46 68
e 46 76
e 46 77
e 46 80
e 46 96
e 46 98
e 46 100
e 46 105
e 46 106
e 46 108
e 46 109
e 46 111
e 46 113
e 46 114
e 46 115
e 46 116
e 46 117
e 46 118
e 46 120
e 46 122
e 46 123
e 46 128
e 46 130
e 46 136
e 46 137
e 46 140
e 46 143
e 46 145
e 46 146
e 46 147
e 46 148
e 47 53
e 47 55
e 47 56
e 47 57
e 47 58
e 47 64
e 47 66
e 47 68
e 47 69
e 47 71
e 47 72
e 47 73
e 47 77
e 47 78
e 47 81
e 47 82
e 47 86
e 47 89
e 47 90
e 47 92
e 47 94
e 47 102
e 47 103
e 47 105
e 47 107
e 47 108
e 47 119
e 47 125
e 47 127
e 47 130
e 47 131
e 47 132
e 47 136
e 47 140
e 47 144
e 47 145
e 47 150
e 48 50
e 48 51
e 48 58
e 48 61
e 48 64
e 48 67
e 48 73
e 48 76
e 48 80
e 48 82
e 48 83
e 48 85
e 48 94
e 48 97
e 48 98
e 48 103
e 48 112
e 48 114
e 48 115
e 48 117
e 48 118
e 48 119
e 48 121
e 48 122
e 48 128
e 48 130
e 48 132
e 48 133
e 48 134
e 48 136
e 48 137
e 48 144
e 48 145
e 49 55
e 49 56
e 49 72
e 49 75
e 49 79
e 49 80
e 49 83
e 49 87
e 49 88
e 49 93
e 49 97
e 49 99
e 49 103
e 49 110
e 49 115
e 49 116
e 49 122
e 49 123
e 49 126
e 49 133
e 49 134
e 49 136
e 49 138
e 49 143
e 49 146
e 49 150
e 50 53
e 50 54
e 50 59
e 50 67
e 50 70
e 50 72
e 50 78
e 50 79
e 50 82
e 50 87
e 50 90
e 50 92
e 50 95
e 50 97
e 50 104
e 50 105
e 50 106
e 50 108
e 50 114
e 50 116
e 50 118
e 50 121
e 50 122
e 50 124
e 50 126
e 50 129
e 50 130
e 50 134
e 50 138
e 50 142
e 50 150
e 51 52
e 51 63
e 51 65
e 51 68
e 51 71
e 51 74
e 51 76
e 51 77
e 51 80
e 51 81
e 51 86
e 51 89
e 51 94
e 51 95
e 51 99
e 51 100
e 51 102
e 51 103
e 51 105
e 51 106
e 51 107
e 51 116
e 51 125
e 51 128
e 51 132
e 51 134
e 51 137
e 51 141
e 51 143
e 51 145
e 52 53
e 52 55
e 52 58
e 52 59
e 52 60
e 52 61
e 52 62
e 52 64
e 52 65
e 52 66
e 52 75
e 52 80
e 52 84
e 52 85
e 52 87
e 52 89
e 52 97
e 52 98
e 52 101
e 52 105
e 52 114
e 52 115
e 52 116
e 52 117
e 52 122
e 52 125
e 52 126
e 52 127
e 52 130
e 52 134
e 52 136
e 52 138
e 52 141
e 52 142
e 52 144
e 53 54
e 53 58
e 53 62
e 53 63
e 53 64
e 53 66
e 53 67
e 53 69
e 53 73
e 53 74
e 53 83
e 53 88
e 53 93
e 53 97
e 53 99
e 53 100
e 53 102
e 53 120
e 53 121
e 53 127
e 53 130
e 53 132
e 53 134
e 53 135
e 53 143
e 53 145
e 53 147
e 53 149
e 54 55
e 54 56
e 54 57
e 54 59
e 54 60
e 54 64
e 54 66
e 54 68
e 54 70
e 54 76
e 54 80
e 54 90
e 54 104
e 54 106
e 54 115
e 54 121
e 54 122
e 54 123
e 54 124
e 54 129
e 54 130
e 54 132
e 54 136
e 54 138
e 54 139
e 55 58
e 55 61
e 55 69
e 55 70
e 55 72
e 55 74
e 55 77
e 55 78
e 55 81
e 55 87
e 55 88
e 55 90
e 55 91
e 55 94
e 55 98
e 55 103
e 55 109
e 55 114
e 55 121
e 55 122
e 55 123
e 55 126
e 55 128
e 55 129
e 55 131
e 55 133
e 55 137
e 55 139
e 55 143
e 55 150
e 56 61
e 56 62
e 56 64
e 56 69
e 56 70
e 56 74
e 56 76
e 56 77
e 56 79
e 56 81
e 56 87
e 56 92
e 56 93
e 56 98
e 56 99
e 56 102
e 56 104
e 56 107
e 56 109
e 56 112
e 56 115
e 56 121
e 56 124
e 56 125
e 56 131
e 56 132
e 56 133
e 56 135
e 56 137
e 56 140
e 56 141
e 56 142
e 56 143
e 56 144
e 56 147
e 56 150
e 57 62
e 57 63
e 57 65
e 57 70
e 57 77
e 57 79
e 57 81
e 57 84
e 57 85
e 57 90
e 57 92
e 57 96
e 57 103
e 57 104
e 57 107
e 57 108
e 57 110
e 57 112
e 57 114
e 57 119
e 57 125
e 57 126
e 57 127
e 57 133
e 57 134
e 57 137
e 57 138
e 57 139
e 57 141
e 57 143
e 57 144
e 57 146
e 57 147
e 57 149
e 58 62
e 58 63
e 58 64
e 58 65
e 58 66
e 58 67
e 58 75
e 58 76
e 58 77
e 58 79
e 58 83
e 58 89
e 58 95
e 58 97
e 58 100
e 58 105
e 58 107
e 58 108
e 58 109
e 58 116
e 58 118
e 58 120
e 58 128
e 58 132
e 58 133
e 58 134
e 58 137
e 58 139
e 58 146
e 58 148
e 58 150
e 59 68
e 59 72
e 59 77
e 59 80
e 59 81
e 59 82
e 59 84
e 59 89
e 59 91
e 59 94
e 59 99
e 59 102
e 59 106
e 59 110
e 59 114
e 59 121
e 59 125
e 59 127
e 59 129
e 59 135
e 59 137
e 59 138
e 59 139
e 59 140
e 59 141
e 59 145
e 59 147
e 59 148
e 59 149
e 59 150
e 60 62
e 60 63
e 60 65
e 60 74
e 60 75
e 60 77
e 60 88
e 60 89
e 60 90
e 60 92
e 60 94
e 60 99
e 60 102
e 60 104
e 60 105
e 60 108
e 60 120
e 60 126
e 60 133
e 60 134
e 60 135
e 60 139
e 60 141
e 60 144
e 60 146
e 60 147
e 60 149
e 60 150
e 61 63
e 61 67
e 61 69
e 61 72
e 61 78
e 61 79
e 61 88
e 61 92
e 61 95
e 61 99
e 61 100
e 61 110
e 61 113
e 61 122
e 61 128
e 61 141
e 61 142
e 61 144
e 61 145
e 61 146
e 62 64
e 62 66
e 62 68
e 62 71
e 62 72
e 62 74
e 62 77
e 62 79
e 62 83
e 62 85
e 62 91
e 62 93
e 62 94
e 62 96
e 62 100
e 62 103
e 62 105
e 62 112
e 62 113
e 62 118
e 62 120
e 62 123
e 62 125
e 62 126
e 62 130
e 62 131
e 62 135
e 62 136
e 62 142
e 62 144
e 62 146
e 62 148
e 62 150
e 63 64
e 63 70
e 63 72
e 63 74
e 63 75
e 63 77
e 63 78
e 63 83
e 63 85
e 63 87
e 63 88
e 63 89
e 63 93
e 63 98
e 63 102
e 63 110
e 63 112
e 63 116
e 63 119
e 63 122
e 63 124
e 63 125
e 63 126
e 63 133
e 63 144
e 63 150
e 64 66
e 64 70
e 64 71
e 64 73
e 64 74
e 64 77
e 64 92
e 64 93
e 64 95
e 64 97
e 64 99
e 64 102
e 64 107
e 64 109
e 64 112
e 64 128
e 64 129
e 64 131
e 64 132
e 64 135
e 64 140
e 64 143
e 64 147
e 64 148
e 65 72
e 65 77
e 65 81
e 65 82
e 65 84
e 65 91
e 65 97
e 65 98
e 65 104
e 65 109
e 65 117
e 65 118
e 65 119
e 65 120
e 65 121
e 65 126
e 65 131
e 65 135
e 65 139
e 65 145
e 66 76
e 66 77
e 66 79
e 66 82
e 66 85
e 66 93
e 66 96
e 66 97
e 66 99
e 66 100
e 66 101
e 66 102
e 66 105
e 66 106
e 66 107
e 66 113
e 66 117
e 66 120
e 66 122
e 66 123
e 66 126
e 66 131
e 66 133
e 66 135
e 66 138
e 66 140
e 67 69
e 67 70
e 67 72
e 67 78
e 67 81
e 67 82
e 67 85
e 67 87
e 67 92
e 67 93
e 67 94
e 67 101
e 67 109
e 67 112
e 67 115
e 67 123
e 67 126
e 67 130
e 67 134
e 67 137
e 67 140
e 67 142
e 67 147
e 67 150
e 68 71
e 68 75
e 68 76
e 68 84
e 68 87
e 68 90
e 68 93
e 68 97
e 68 103
e 68 104
e 68 107
e 68 108
e 68 110
e 68 128
e 68 132
e 68 133
e 68 134
e 68 138
e 68 141
e 68 146
e 69 71
e 69 72
e 69 76
e 69 80
e 69 83
e 69 85
e 69 87
e 69 89
e 69 91
e 69 94
e 69 96
e 69 99
e 69 100
e 69 101
e 69 105
e 69 107
e 69 109
e 69 110
e 69 114
e 69 116
e 69 119
e 69 121
e 69 130
e 69 136
e 69 140
e 69 142
e 69 147
e 69 149
e 70 73
e 70 75
e 70 80
e 70 85
e 70 87
e 70 89
e 70 91
e 70 94
e 70 100
e 70 107
e 70 112
e 70 118
e 70 121
e 70 122
e 70 125
e 70 134
e 70 144
e 70 148
e 70 150
e 71 73
e 71 85
e 71 86
e 71 89
e 71 90
e 71 91
e 71 93
e 71 99
e 71 105
e 71 111
e 71 113
e 71 118
e 71 121
e 71 125
e 71 130
e 71 138
e 71 141
e 71 142
e 71 148
e 72 76
e 72 77
e 72 81
e 72 84
e 72 86
e 72 89
e 72 95
e 72 98
e 72 99
e 72 101
e 72 102
e 72 103
e 72 104
e 72 105
e 72 115
e 72 127
e 72 128
e 72 130
e 72 131
e 72 134
e 72 137
e 72 139
e 72 147
e 73 74
e 73 75
e 73 76
e 73 81
e 73 86
e 73 89
e 73 91
e 73 92
e 73 98
e 73 99
e 73 101
e 73 105
e 73 108
e 73 109
e 73 114
e 73 115
e 73 117
e 73 119
e 73 122
e 73 124
e 73 125
e 73 131
e 73 133
e 73 134
e 73 135
e 73 137
e 73 138
e 73 141
e 73 142
e 73 143
e 73 144
e 73 148
e 73 149
e 74 77
e 74 82
e 74 85
e 74 86
e 74 88
e 74 90
e 74 92
e 74 93
e 74 98
e 74 100
e 74 104
e 74 109
e 74 113
e 74 114
e 74 119
e 74 121
e 74 123
e 74 133
e 74 137
e 74 140
e 75 76
e 75 77
e 75 82
e 75 85
e 75 93
e 75 94
e 75 96
e 75 97
e 75 98
e 75 99
e 75 102
e 75 111
e 75 112
e 75 119
e 75 124
e 75 126
e 75 128
e 75 130
e 75 132
e 75 137
e 75 141
e 75 144
e 76 82
e 76 86
e 76 89
e 76 91
e 76 92
e 76 98
e 76 99
e 76 101
e 76 103
e 76 104
e 76 109
e 76 112
e 76 116
e 76 123
e 76 125
e 76 128
e 76 130
e 76 135
e 76 136
e 76 141
e 76 143
e 76 146
e 76 148
e 76 149
e 76 150
e 77 81
e 77 82
e 77 83
e 77 85
e 77 86
e 77 87
e 77 93
e 77 96
e 77 99
e 77 101
e 77 104
e 77 106
e 77 109
e 77 110
e 77 111
e 77 113
e 77 118
e 77 123
e 77 130
e 77 131
e 77 135
e 77 139
e 77 147
e 78 80
e 78 82
e 78 84
e 78 89
e 78 97
e 78 99
e 78 100
e 78 108
e 78 110
e 78 114
e 78 118
e 78 119
e 78 125
e 78 127
e 78 130
e 78 131
e 78 132
e 78 136
e 78 142
e 78 143
e 78 148
e 79 81
e 79 82
e 79 88
e 79 89
e 79 91
e 79 93
e 79 100
e 79 101
e 79 103
e 79 104
e 79 108
e 79 109
e 79 112
e 79 115
e 79 119
e 79 120
e 79 122
e 79 125
e 79 127
e 79 136
e 79 142
e 79 144
e 79 148
e 80 81
e 80 83
e 80 86
e 80 89
e 80 98
e 80 102
e 80 107
e 80 111
e 80 114
e 80 115
e 80 116
e 80 118
e 80 122
e 80 125
e 80 130
e 80 131
e 80 136
e 80 139
e 80 141
e 80 143
e 80 144
e 81 88
e 81 89
e 81 103
e 81 105
e 81 107
e 81 110
e 81 112
e 81 114
e 81 120
e 81 122
e 81 134
e 81 140
e 82 89
e 82 90
e 82 92
e 82 95
e 82 97
e 82 100
e 82 104
e 82 108
e 82 111
e 82 113
e 82 118
e 82 120
e 82 122
e 82 123
e 82 125
e 82 132
e 82 135
e 82 142
e 82 146
e 82 149
e 82 150
e 83 91
e 83 94
e 83 95
e 83 98
e 83 101
e 83 102
e 83 105
e 83 109
e 83 114
e 83 119
e 83 120
e 83 122
e 83 123
e 83 131
e 83 133
e 83 134
e 83 136
e 83 143
e 84 86
e 84 87
e 84 94
e 84 95
e 84 98
e 84 100
e 84 106
e 84 113
e 84 114
e 84 116
e 84 117
e 84 119
e 84 121
e 84 125
e 84 128
e 84 132
e 84 141
e 84 144
e 84 145
e 84 146
e 84 147
e 84 149
e 84 150
e 85 88
e 85 91
e 85 92
e 85 95
e 85 101
e 85 107
e 85 111
e 85 115
e 85 116
e 85 120
e 85 124
e 85 128
e 85 130
e 85 136
e 86 88
e 86 97
e 86 101
e 86 105
e 86 107
e 86 108
e 86 109
e 86 110
e 86 112
e 86 114
e 86 115
e 86 117
e 86 121
e 86 122
e 86 123
e 86 124
e 86 129
e 86 135
e 86 144
e 86 146
e 87 92
e 87 96
e 87 97
e 87 102
e 87 103
e 87 106
e 87 107
e 87 110
e 87 111
e 87 113
e 87 114
e 87 117
e 87 119
e 87 126
e 87 128
e 87 130
e 87 135
e 87 139
e 87 143
e 87 145
e 87 148
e 87 149
e 87 150
e 88 89
e 88 90
e 88 98
e 88 99
e 88 102
e 88 103
e 88 105
e 88 118
e 88 124
e 88 125
e 88 129
e 88 130
e 88 131
e 88 133
e 88 134
e 88 137
e 88 145
e 88 147
e 89 92
e 89 97
e 89 98
e 89 100
e 89 108
e 89 109
e 89 110
e 89 113
e 89 118
e 89 120
e 89 127
e 89 128
e 89 133
e 89 134
e 89 136
e 89 137
e 89 138
e 89 141
e 89 142
e 89 146
e 90 96
e 90 98
e 90 99
e 90 103
e 90 107
e 90 109
e 90 110
e 90 112
e 90 113
e 90 115
e 90 117
e 90 118
e 90 120
e 90 122
e 90 124
e 90 126
e 90 128
e 90 130
e 90 134
e 90 136
e 90 137
e 90 138
e 90 141
e 90 145
e 90 149
e 91 92
e 91 100
e 91 104
e 91 106
e 91 109
e 91 110
e 91 111
e 91 112
e 91 116
e 91 120
e 91 129
e 91 132
e 91 135
e 91 136
e 91 140
e 91 144
e 91 145
e 91 150
e 92 102
e 92 107
e 92 110
e 92 111
e 92 116
e 92 117
e 92 118
e 92 120
e 92 122
e 92 123
e 92 129
e 92 132
e 92 136
e 92 148
e 93 96
e 93 99
e 93 101
e 93 102
e 93 109
e 93 111
e 93 112
e 93 114
e 93 115
e 93 118
e 93 122
e 93 126
e 93 127
e 93 128
e 93 131
e 93 135
e 93 141
e 93 145
e 93 146
e 93 149
e 93 150
e 94 97
e 94 102
e 94 105
e 94 108
e 94 111
e 94 121
e 94 122
e 94 124
e 94 125
e 94 129
e 94 130
e 94 132
e 94 136
e 94 144
e 94 147
e 95 96
e 95 97
e 95 100
e 95 101
e 95 107
e 95 110
e 95 113
e 95 120
e 95 126
e 95 139
e 95 141
e 95 142
e 95 143
e 95 147
e 95 150
e 96 105
e 96 114
e 96 115
e 96 118
e 96 121
e 96 125
e 96 126
e 96 127
e 96 130
e 96 133
e 96 134
e 96 135
e 96 138
e 96 145
e 96 146
e 96 147
e 96 148
e 96 149
e 97 102
e 97 104
e 97 105
e 97 108
e 97 109
e 97 121
e 97 124
e 97 125
e 97 133
e 97 135
e 97 142
e 97 144
e 97 145
e 98 100
e 98 101
e 98 118
e 98 128
e 98 138
e 98 139
e 98 143
e 98 148
e 99 100
e 99 101
e 99 103
e 99 114
e 99 115
e 99 116
e 99 118
e 99 121
e 99 130
e 99 133
e 99 134
e 99 135
e 99 148
e 100 101
e 100 104
e 100 109
e 100 112
e 100 113
e 100 122
e 100 123
e 100 125
e 100 126
e 100 132
e 100 142
e 100 143
e 100 145
e 100 147
e 100 148
e 100 149
e 100 150
e 101 102
e 101 103
e 101 109
e 101 112
e 101 114
e 101 115
e 101 116
e 101 117
e 101 119
e 101 120
e 101 122
e 101 123
e 101 124
e 101 128
e 101 132
e 101 135
e 101 137
e 101 140
e 101 143
e 101 146
e 101 150
e 102 105
e 102 107
e 102 108
e 102 111
e 102 121
e 102 122
e 102 124
e 102 126
e 102 128
e 102 132
e 102 133
e 102 141
e 102 142
e 102 143
e 102 145
e 102 148
e 102 149
e 103 105
e 103 106
e 103 110
e 103 113
e 103 114
e 103 115
e 103 117
e 103 122
e 103 124
e 103 127
e 103 128
e 103 136
e 103 140
e 103 141
e 103 144
e 103 148
e 104 109
e 104 116
e 104 117
e 104 120
e 104 122
e 104 126
e 104 127
e 104 137
e 104 138
e 104 139
e 104 141
e 104 142
e 104 143
e 104 149
e 104 150
e 105 116
e 105 118
e 105 124
e 105 126
e 105 131
e 105 132
e 105 134
e 105 139
e 105 140
e 105 142
e 105 146
e 105 147
e 105 148
e 106 112
e 106 113
e 106 117
e 106 120
e 106 124
e 106 125
e 106 126
e 106 127
e 106 132
e 106 134
e 106 140
e 106 143
e 106 144
e 106 147
e 106 148
e 106 150
e 107 108
e 107 115
e 107 117
e 107 125
e 107 127
e 107 132
e 107 133
e 107 136
e 107 150
e 108 109
e 108 111
e 108 113
e 108 115
e 108 117
e 108 121
e 108 123
e 108 124
e 108 129
e 108 130
e 108 133
e 108 135
e 108 136
e 108 139
e 108 148
e 108 150
e 109 115
e 109 124
e 109 125
e 109 129
e 109 131
e 109 139
e 109 141
e 109 142
e 109 144
e 109 148
e 110 116
e 110 121
e 110 122
e 110 127
e 110 134
e 110 141
e 110 142
e 111 117
e 111 118
e 111 119
e 111 120
e 111 124
e 111 138
e 111 139
e 111 142
e 111 144
e 111 145
e 111 146
e 112 113
e 112 125
e 112 126
e 112 138
e 112 140
e 112 142
e 112 143
e 112 146
e 112 147
e 113 116
e 113 118
e 113 119
e 113 121
e 113 122
e 113 123
e 113 125
e 113 126
e 113 127
e 113 128
e 113 131
e 113 137
e 113 141
e 113 142
e 113 144
e 113 147
e 113 148
e 114 120
e 114 121
e 114 122
e 114 124
e 114 125
e 114 133
e 114 136
e 114 143
e 114 147
e 115 118
e 115 119
e 115 122
e 115 124
e 115 126
e 115 132
e 115 143
e 115 146
e 115 149
e 116 118
e 116 119
e 116 123
e 116 131
e 116 132
e 116 133
e 116 136
e 116 139
e 116 142
e 116 145
e 117 120
e 117 122
e 117 125
e 117 128
e 117 132
e 117 133
e 117 134
e 117 135
e 117 139
e 117 148
e 117 150
e 118 130
e 118 132
e 118 133
e 118 141
e 118 143
e 118 147
e 119 120
e 119 121
e 119 122
e 119 123
e 119 129
e 119 135
e 119 137
e 119 138
e 119 146
e 119 147
e 119 149
e 119 150
e 120 122
e 120 124
e 120 125
e 120 136
e 120 137
e 120 143
e 120 144
e 120 145
e 121 122
e 121 125
e 121 130
e 121 134
e 121 136
e 121 137
e 121 140
e 121 141
e 121 143
e 121 146
e 121 148
e 121 149
e 122 125
e 122 132
e 122 139
e 122 141
e 123 130
e 123 145
e 123 146
e 123 147
e 123 148
e 123 150
e 124 125
e 124 127
e 124 130
e 124 131
e 124 139
e 124 144
e 124 145
e 125 128
e 125 133
e 125 136
e 125 139
e 125 141
e 125 143
e 125 144
e 126 134
e 126 135
e 126 136
e 126 141
e 126 143
e 127 130
e 127 134
e 127 139
e 127 142
e 127 148
e 127 149
e 128 131
e 128 134
e 128 141
e 128 143
e 128 149
e 128 150
e 129 132
e 129 135
e 129 137
e 129 141
e 129 144
e 129 146
e 129 147
e 130 131
e 130 138
e 130 141
e 130 143
e 130 148
e 131 133
e 131 136
e 131 138
e 131 143
e 131 144
e 131 146
e 131 148
e 132 134
e 132 137
e 132 138
e 132 140
e 132 141
e 132 149
e 133 135
e 133 136
e 133 138
e 133 139
e 133 143
e 133 147
e 133 148
e 134 136
e 134 138
e 134 140
e 134 141
e 134 142
e 134 144
e 134 145
e 134 146
e 134 147
e 134 148
e 135 136
e 135 141
e 135 146
e 135 149
e 136 139
e 136 140
e 137 139
e 137 141
e 137 142
e 137 143
e 137 145
e 137 149
e 137 150
e 138 139
e 138 140
e 138 142
e 138 144
e 138 146
e 138 147
e 138 149
e 139 143
e 139 145
e 139 149
e 140 141
e 140 145
e 140 149
e 141 142
e 141 145
e 141 147
e 141 150
e 142 147
e 143 146
e 143 147
e 143 149
e 144 149
e 144 150
e 145 146
e 145 150
e 146 149
e 146 150
